20190523 80 0 0 0
20180511 80 0 0 0
20180510 80 0 0 0
20180509 80 0 0 0
20170531 80 0 0 0
20160523 150 10000 0 0
20150601 150 0 0 0
20140521 150 0 0 0
20130523 150 0 0 0
20120601 130 0 0 0
20110531 130 0 0 0
20100504 120 0 0 0
20090507 110 0 0 0
20080620 160 0 0 0
20070604 170 0 0 0
20060602 180 0 0 0
20060419 0 3000 0 0
20050617 120 10000 0 0
20040601 315 0 0 0
20030429 350 0 0 0
20020430 360 0 0 0
20010601 334 0 0 0
